77
1 15 
1 33 
3 75 111 47 
1 37 
1 48 
3 114 83 92 
2 3 115 
1 101 
2 103 55 
2 12 91 
1 53 
3 30 97 23 
2 82 13 
1 105 
1 93 
2 45 76 
3 10 26 20 
1 31 
3 62 7 90 
1 35 
1 65 
3 100 113 71 
1 27 
3 81 109 6 
1 77 
1 58 
1 85 
1 25 
3 41 1 78 
3 67 8 116 
2 112 74 
1 14 
3 104 98 42 
1 80 
3 2 5 94 
3 64 107 95 
3 36 52 84 
3 108 106 32 
1 43 
1 51 
2 88 24 
1 34 
2 39 29 
1 18 
1 4 
1 66 
1 117 
1 119 
1 59 
1 57 
1 89 
1 50 
1 11 
1 79 
1 69 
1 19 
2 61 70 
1 56 
1 28 
1 17 
1 49 
1 38 
3 72 22 99 
2 21 40 
2 9 60 
1 44 
1 16 
1 46 
3 87 110 96 
1 120 
1 118 
1 68 
1 86 
1 73 
1 54 
1 63 
1 102 
